output/diffusion_ilp.lp
Maximize
  0.0134668909418496 Z_457_2_0 + 0.2057432529256495 Z_457_2_1
   + 0.0466012357227038 Z_457_2_2 + 0.1282107192971718 Z_457_2_3
   + 0.5059779011126252 Z_457_2_4 + 0.0349001495672358 Z_457_3_0
   + 0.0181613118275037 Z_457_3_1 + 0.0231187840405249 Z_457_3_2
   + 0.0639362644379769 Z_457_3_3 + 0.7598834901267588 Z_457_3_4
   + 1.9610132118955161e-04 Z_457_1_0 + 0.00131017579521346 Z_457_1_1
   + 0.7582914992159314 Z_457_1_2 + 0.00270598229538514 Z_457_1_3
   + 0.1374962413722804 Z_457_1_4 + 1.9610132118955161e-04 Z_457_0_0
   + 0.00131017579521346 Z_457_0_1 + 0.7582914992159314 Z_457_0_2
   + 0.00270598229538514 Z_457_0_3 + 0.1374962413722804 Z_457_0_4
Subject To
 constraint1_4572: Z_457_2_0 + Z_457_2_1 + Z_457_2_2 + Z_457_2_3
   + Z_457_2_4 <= 1
 constraint1_4573: Z_457_3_0 + Z_457_3_1 + Z_457_3_2 + Z_457_3_3
   + Z_457_3_4 <= 1
 constraint1_4571: Z_457_1_0 + Z_457_1_1 + Z_457_1_2 + Z_457_1_3
   + Z_457_1_4 <= 1
 constraint1_4570: Z_457_0_0 + Z_457_0_1 + Z_457_0_2 + Z_457_0_3
   + Z_457_0_4 <= 1
 constraint2_1870: <= 1
 constraint2_1871: <= 1
 constraint2_1872: <= 1
 constraint2_1873: <= 1
 constraint2_4390: <= 1
 constraint2_4391: <= 1
 constraint2_4392: <= 1
 constraint2_4393: <= 1
 constraint2_4570: Z_457_2_0 + Z_457_3_0 + Z_457_1_0 + Z_457_0_0 <= 1
 constraint2_4571: Z_457_2_1 + Z_457_3_1 + Z_457_1_1 + Z_457_0_1 <= 1
 constraint2_4572: Z_457_2_2 + Z_457_3_2 + Z_457_1_2 + Z_457_0_2 <= 1
 constraint2_4573: Z_457_2_3 + Z_457_3_3 + Z_457_1_3 + Z_457_0_3 <= 1
 constraint2_5670: <= 1
 constraint2_5671: <= 1
 constraint2_5672: <= 1
 constraint2_5673: <= 1
Bounds
Binaries
 Z_457_2_0 Z_457_2_1 Z_457_2_2 Z_457_2_3 Z_457_2_4 Z_457_3_0 Z_457_3_1
 Z_457_3_2 Z_457_3_3 Z_457_3_4 Z_457_1_0 Z_457_1_1 Z_457_1_2 Z_457_1_3
 Z_457_1_4 Z_457_0_0 Z_457_0_1 Z_457_0_2 Z_457_0_3 Z_457_0_4
End
