output/diffusion_ilp.sol
# Solution for model diffusion_srl_ilp
# Objective value = 2.1616491318275961e+00
Z_457_2_0 0
Z_457_2_1 0
Z_457_2_2 0
Z_457_2_3 0
Z_457_2_4 1
Z_457_3_0 0
Z_457_3_1 0
Z_457_3_2 0
Z_457_3_3 0
Z_457_3_4 1
Z_457_1_0 0
Z_457_1_1 0
Z_457_1_2 0
Z_457_1_3 0
Z_457_1_4 1
Z_457_0_0 0
Z_457_0_1 0
Z_457_0_2 1
Z_457_0_3 0
Z_457_0_4 0
